          8 77502

  0 82 26 69 56 86 45 91
 82  0 59 18 76 39 18 57
 26 59  0 36 61 36 21 71
 69 18 36  0 11 29 82 82
 56 76 61 11  0  6 71  8
 86 39 36 29  6  0 77 74
 45 18 21 82 71 77  0 30
 91 57 71 82  8 74 30  0

  0 21 95 82 56 41  6 25
 21  0 10  4 63  6 44 40
 95 10  0 75 79  0 89 35
 82  4 75  0  9  1 85 84
 56 63 79  9  0 12  0 26
 41  6  0  1 12  0 91 11
  6 44 89 85  0 91  0 35
 25 40 35 84 26 11 35  0
